rcpsp/heur_output_bi_constraints/Log=5/heurj30.txt
encoding rcpsp/j30.sm/j3010_10.sm nv: 168428 nc: 339216 enctime: 2.01
encoding rcpsp/j30.sm/j3010_10.sm nv: 51168 nc: 102276 enctime: 0.66
c File: j3010_10.smnaivebi5.wcnf
c optimal
c final solution cost: 40
c CPU time: 1.017647
s OPTIMUM FOUND

c File: j3010_10.smbi5.wcnf
c optimal
c final solution cost: 40
c CPU time: 0.239151
s OPTIMUM FOUND


rcpsp/heur_output_bi_constraints/Log=5/heurj30.txt
encoding rcpsp/j30.sm/j3010_1.sm nv: 159060 nc: 323495 enctime: 2.00
encoding rcpsp/j30.sm/j3010_1.sm nv: 41452 nc: 83399 enctime: 0.47
c File: j3010_1.smnaivebi5.wcnf
c optimal
c final solution cost: 39
c CPU time: 1.267819
s OPTIMUM FOUND

c File: j3010_1.smbi5.wcnf
c optimal
c final solution cost: 39
c CPU time: 0.180572
s OPTIMUM FOUND


rcpsp/heur_output_bi_constraints/Log=5/heurj30.txt
encoding rcpsp/j30.sm/j3010_2.sm nv: 138270 nc: 283330 enctime: 1.74
encoding rcpsp/j30.sm/j3010_2.sm nv: 52794 nc: 107482 enctime: 0.58
c File: j3010_2.smnaivebi5.wcnf
c optimal
c final solution cost: 56
c CPU time: 1.928903
s OPTIMUM FOUND

c File: j3010_2.smbi5.wcnf
c optimal
c final solution cost: 56
c CPU time: 0.542318
s OPTIMUM FOUND


rcpsp/heur_output_bi_constraints/Log=5/heurj30.txt
encoding rcpsp/j30.sm/j3010_3.sm nv: 160146 nc: 332095 enctime: 2.04
encoding rcpsp/j30.sm/j3010_3.sm nv: 59409 nc: 122314 enctime: 0.77
c File: j3010_3.smnaivebi5.wcnf
c optimal
c final solution cost: 56
c CPU time: 1.622316
s OPTIMUM FOUND

c File: j3010_3.smbi5.wcnf
c optimal
c final solution cost: 56
c CPU time: 1.292057
s OPTIMUM FOUND


rcpsp/heur_output_bi_constraints/Log=5/heurj30.txt
encoding rcpsp/j30.sm/j3010_4.sm nv: 175770 nc: 365929 enctime: 2.33
encoding rcpsp/j30.sm/j3010_4.sm nv: 70680 nc: 146257 enctime: 0.90
c File: j3010_4.smnaivebi5.wcnf
c optimal
c final solution cost: 53
c CPU time: 0.555391
s OPTIMUM FOUND

c File: j3010_4.smbi5.wcnf
c optimal
c final solution cost: 53
c CPU time: 0.218210
s OPTIMUM FOUND


rcpsp/heur_output_bi_constraints/Log=5/heurj30.txt
encoding rcpsp/j30.sm/j3010_5.sm nv: 151536 nc: 309850 enctime: 1.91
encoding rcpsp/j30.sm/j3010_5.sm nv: 41580 nc: 84226 enctime: 0.48
c File: j3010_5.smnaivebi5.wcnf
c optimal
c final solution cost: 39
c CPU time: 1.431483
s OPTIMUM FOUND

c File: j3010_5.smbi5.wcnf
c optimal
c final solution cost: 39
c CPU time: 0.778057
s OPTIMUM FOUND


rcpsp/heur_output_bi_constraints/Log=5/heurj30.txt
encoding rcpsp/j30.sm/j3010_6.sm nv: 123186 nc: 249503 enctime: 1.53
encoding rcpsp/j30.sm/j3010_6.sm nv: 47766 nc: 96143 enctime: 0.53
c File: j3010_6.smnaivebi5.wcnf
c optimal
c final solution cost: 42
c CPU time: 0.702163
s OPTIMUM FOUND

c File: j3010_6.smbi5.wcnf
c optimal
c final solution cost: 42
c CPU time: 0.340008
s OPTIMUM FOUND


rcpsp/heur_output_bi_constraints/Log=5/heurj30.txt
encoding rcpsp/j30.sm/j3010_7.sm nv: 179172 nc: 368050 enctime: 2.33
encoding rcpsp/j30.sm/j3010_7.sm nv: 54036 nc: 109990 enctime: 0.71
c File: j3010_7.smnaivebi5.wcnf
c optimal
c final solution cost: 42
c CPU time: 0.942527
s OPTIMUM FOUND

c File: j3010_7.smbi5.wcnf
c optimal
c final solution cost: 42
c CPU time: 0.312048
s OPTIMUM FOUND


rcpsp/heur_output_bi_constraints/Log=5/heurj30.txt
encoding rcpsp/j30.sm/j3010_8.sm nv: 155229 nc: 319766 enctime: 2.02
encoding rcpsp/j30.sm/j3010_8.sm nv: 66652 nc: 136552 enctime: 0.85
c File: j3010_8.smnaivebi5.wcnf
c optimal
c final solution cost: 50
c CPU time: 0.557752
s OPTIMUM FOUND

c File: j3010_8.smbi5.wcnf
c optimal
c final solution cost: 50
c CPU time: 0.705065
s OPTIMUM FOUND


rcpsp/heur_output_bi_constraints/Log=5/heurj30.txt
encoding rcpsp/j30.sm/j3010_9.sm nv: 160650 nc: 323470 enctime: 1.94
encoding rcpsp/j30.sm/j3010_9.sm nv: 52500 nc: 105007 enctime: 0.66
c File: j3010_9.smnaivebi5.wcnf
c optimal
c final solution cost: 40
c CPU time: 0.472451
s OPTIMUM FOUND

c File: j3010_9.smbi5.wcnf
c optimal
c final solution cost: 40
c CPU time: 0.143155
s OPTIMUM FOUND


rcpsp/heur_output_bi_constraints/Log=5/heurj30.txt
encoding rcpsp/j30.sm/j301_10.sm nv: 19650 nc: 51848 enctime: 0.38
encoding rcpsp/j30.sm/j301_10.sm nv: 7336 nc: 18760 enctime: 0.08
c File: j301_10.smnaivebi5.wcnf
c optimal
c final solution cost: 43
c CPU time: 0.160208
s OPTIMUM FOUND

c File: j301_10.smbi5.wcnf
c optimal
c final solution cost: 43
c CPU time: 0.036793
s OPTIMUM FOUND


rcpsp/heur_output_bi_constraints/Log=5/heurj30.txt
encoding rcpsp/j30.sm/j3011_10.sm nv: 162792 nc: 327932 enctime: 1.97
encoding rcpsp/j30.sm/j3011_10.sm nv: 51072 nc: 102182 enctime: 0.66
c File: j3011_10.smnaivebi5.wcnf
c optimal
c final solution cost: 38
c CPU time: 0.485478
s OPTIMUM FOUND

c File: j3011_10.smbi5.wcnf
c optimal
c final solution cost: 38
c CPU time: 0.146168
s OPTIMUM FOUND


rcpsp/heur_output_bi_constraints/Log=5/heurj30.txt
encoding rcpsp/j30.sm/j3011_1.sm nv: 133650 nc: 274806 enctime: 1.73
encoding rcpsp/j30.sm/j3011_1.sm nv: 55275 nc: 113021 enctime: 0.61
c File: j3011_1.smnaivebi5.wcnf
c optimal
c final solution cost: 52
c CPU time: 0.353350
s OPTIMUM FOUND

c File: j3011_1.smbi5.wcnf
c optimal
c final solution cost: 52
c CPU time: 0.161441
s OPTIMUM FOUND


rcpsp/heur_output_bi_constraints/Log=5/heurj30.txt
encoding rcpsp/j30.sm/j3011_2.sm nv: 193800 nc: 399443 enctime: 2.59
encoding rcpsp/j30.sm/j3011_2.sm nv: 61047 nc: 124758 enctime: 0.71
c File: j3011_2.smnaivebi5.wcnf
c optimal
c final solution cost: 51
c CPU time: 0.914257
s OPTIMUM FOUND

c File: j3011_2.smbi5.wcnf
c optimal
c final solution cost: 51
c CPU time: 0.427808
s OPTIMUM FOUND


rcpsp/heur_output_bi_constraints/Log=5/heurj30.txt
encoding rcpsp/j30.sm/j3011_3.sm nv: 183024 nc: 374301 enctime: 2.36
encoding rcpsp/j30.sm/j3011_3.sm nv: 78720 nc: 160181 enctime: 1.00
c File: j3011_3.smnaivebi5.wcnf
c optimal
c final solution cost: 60
c CPU time: 0.538757
s OPTIMUM FOUND

c File: j3011_3.smbi5.wcnf
c optimal
c final solution cost: 60
c CPU time: 0.226731
s OPTIMUM FOUND


rcpsp/heur_output_bi_constraints/Log=5/heurj30.txt
encoding rcpsp/j30.sm/j3011_4.sm nv: 173376 nc: 359851 enctime: 2.26
encoding rcpsp/j30.sm/j3011_4.sm nv: 55083 nc: 113309 enctime: 0.71
c File: j3011_4.smnaivebi5.wcnf
c optimal
c final solution cost: 53
c CPU time: 0.952743
s OPTIMUM FOUND

c File: j3011_4.smbi5.wcnf
c optimal
c final solution cost: 53
c CPU time: 0.252169
s OPTIMUM FOUND


rcpsp/heur_output_bi_constraints/Log=5/heurj30.txt
encoding rcpsp/j30.sm/j3011_5.sm nv: 149118 nc: 308523 enctime: 1.97
encoding rcpsp/j30.sm/j3011_5.sm nv: 45421 nc: 93143 enctime: 0.53
c File: j3011_5.smnaivebi5.wcnf
c optimal
c final solution cost: 48
c CPU time: 0.397367
s OPTIMUM FOUND

c File: j3011_5.smbi5.wcnf
c optimal
c final solution cost: 48
c CPU time: 0.101702
s OPTIMUM FOUND


rcpsp/heur_output_bi_constraints/Log=5/heurj30.txt
encoding rcpsp/j30.sm/j3011_6.sm nv: 176568 nc: 356781 enctime: 2.19
encoding rcpsp/j30.sm/j3011_6.sm nv: 48346 nc: 96799 enctime: 0.56
c File: j3011_6.smnaivebi5.wcnf
c optimal
c final solution cost: 38
c CPU time: 1.667044
s OPTIMUM FOUND

c File: j3011_6.smbi5.wcnf
c optimal
c final solution cost: 38
c CPU time: 0.239160
s OPTIMUM FOUND


rcpsp/heur_output_bi_constraints/Log=5/heurj30.txt
encoding rcpsp/j30.sm/j3011_7.sm nv: 208032 nc: 419375 enctime: 2.62
encoding rcpsp/j30.sm/j3011_7.sm nv: 49644 nc: 99115 enctime: 0.57
c File: j3011_7.smnaivebi5.wcnf
c optimal
c final solution cost: 36
c CPU time: 1.290097
s OPTIMUM FOUND

c File: j3011_7.smbi5.wcnf
c optimal
c final solution cost: 36
c CPU time: 0.198064
s OPTIMUM FOUND


rcpsp/heur_output_bi_constraints/Log=5/heurj30.txt
encoding rcpsp/j30.sm/j3011_8.sm nv: 156400 nc: 323562 enctime: 2.00
encoding rcpsp/j30.sm/j3011_8.sm nv: 62050 nc: 127536 enctime: 0.80
c File: j3011_8.smnaivebi5.wcnf
c optimal
c final solution cost: 55
c CPU time: 0.394856
s OPTIMUM FOUND

c File: j3011_8.smbi5.wcnf
c optimal
c final solution cost: 55
c CPU time: 0.130417
s OPTIMUM FOUND


rcpsp/heur_output_bi_constraints/Log=5/heurj30.txt
encoding rcpsp/j30.sm/j3011_9.sm nv: 138006 nc: 279752 enctime: 1.70
encoding rcpsp/j30.sm/j3011_9.sm nv: 55924 nc: 112767 enctime: 0.63
c File: j3011_9.smnaivebi5.wcnf
c optimal
c final solution cost: 53
c CPU time: 0.362455
s OPTIMUM FOUND

c File: j3011_9.smbi5.wcnf
c optimal
c final solution cost: 53
c CPU time: 0.118336
s OPTIMUM FOUND


rcpsp/heur_output_bi_constraints/Log=5/heurj30.txt
encoding rcpsp/j30.sm/j301_1.sm nv: 21624 nc: 58273 enctime: 0.43
encoding rcpsp/j30.sm/j301_1.sm nv: 7888 nc: 20600 enctime: 0.09
c File: j301_1.smnaivebi5.wcnf
c optimal
c final solution cost: 43
c CPU time: 0.204544
s OPTIMUM FOUND

c File: j301_1.smbi5.wcnf
c optimal
c final solution cost: 43
c CPU time: 0.040535
s OPTIMUM FOUND


rcpsp/heur_output_bi_constraints/Log=5/heurj30.txt
encoding rcpsp/j30.sm/j3012_10.sm nv: 241332 nc: 483877 enctime: 3.04
encoding rcpsp/j30.sm/j3012_10.sm nv: 76908 nc: 153293 enctime: 0.85
c File: j3012_10.smnaivebi5.wcnf
c optimal
c final solution cost: 57
c CPU time: 0.529323
s OPTIMUM FOUND

c File: j3012_10.smbi5.wcnf
c optimal
c final solution cost: 57
c CPU time: 0.138843
s OPTIMUM FOUND


rcpsp/heur_output_bi_constraints/Log=5/heurj30.txt
encoding rcpsp/j30.sm/j3012_1.sm nv: 192774 nc: 391342 enctime: 2.50
encoding rcpsp/j30.sm/j3012_1.sm nv: 56316 nc: 113386 enctime: 0.64
c File: j3012_1.smnaivebi5.wcnf
c optimal
c final solution cost: 47
c CPU time: 0.449264
s OPTIMUM FOUND

c File: j3012_1.smbi5.wcnf
c optimal
c final solution cost: 47
c CPU time: 0.111399
s OPTIMUM FOUND


rcpsp/heur_output_bi_constraints/Log=5/heurj30.txt
encoding rcpsp/j30.sm/j3012_2.sm nv: 221244 nc: 447421 enctime: 2.77
encoding rcpsp/j30.sm/j3012_2.sm nv: 69216 nc: 139060 enctime: 0.78
c File: j3012_2.smnaivebi5.wcnf
c optimal
c final solution cost: 46
c CPU time: 0.504483
s OPTIMUM FOUND

c File: j3012_2.smbi5.wcnf
c optimal
c final solution cost: 46
c CPU time: 0.141060
s OPTIMUM FOUND


rcpsp/heur_output_bi_constraints/Log=5/heurj30.txt
encoding rcpsp/j30.sm/j3012_3.sm nv: 202938 nc: 403336 enctime: 2.50
encoding rcpsp/j30.sm/j3012_3.sm nv: 51756 nc: 102193 enctime: 0.59
c File: j3012_3.smnaivebi5.wcnf
c optimal
c final solution cost: 37
c CPU time: 0.449613
s OPTIMUM FOUND

c File: j3012_3.smbi5.wcnf
c optimal
c final solution cost: 37
c CPU time: 0.089678
s OPTIMUM FOUND


rcpsp/heur_output_bi_constraints/Log=5/heurj30.txt
encoding rcpsp/j30.sm/j3012_4.sm nv: 257500 nc: 523428 enctime: 3.36
encoding rcpsp/j30.sm/j3012_4.sm nv: 77500 nc: 156372 enctime: 0.87
c File: j3012_4.smnaivebi5.wcnf
c optimal
c final solution cost: 61
c CPU time: 0.675506
s OPTIMUM FOUND

c File: j3012_4.smbi5.wcnf
c optimal
c final solution cost: 61
c CPU time: 0.181504
s OPTIMUM FOUND


rcpsp/heur_output_bi_constraints/Log=5/heurj30.txt
encoding rcpsp/j30.sm/j3012_5.sm nv: 224782 nc: 445186 enctime: 2.77
encoding rcpsp/j30.sm/j3012_5.sm nv: 64608 nc: 127099 enctime: 0.72
c File: j3012_5.smnaivebi5.wcnf
c optimal
c final solution cost: 46
c CPU time: 0.499220
s OPTIMUM FOUND

c File: j3012_5.smbi5.wcnf
c optimal
c final solution cost: 46
c CPU time: 0.125032
s OPTIMUM FOUND


rcpsp/heur_output_bi_constraints/Log=5/heurj30.txt
encoding rcpsp/j30.sm/j3012_6.sm nv: 167840 nc: 339518 enctime: 2.11
encoding rcpsp/j30.sm/j3012_6.sm nv: 67136 nc: 135134 enctime: 0.74
c File: j3012_6.smnaivebi5.wcnf
c optimal
c final solution cost: 41
c CPU time: 0.425399
s OPTIMUM FOUND

c File: j3012_6.smbi5.wcnf
c optimal
c final solution cost: 41
c CPU time: 0.467079
s OPTIMUM FOUND


rcpsp/heur_output_bi_constraints/Log=5/heurj30.txt
encoding rcpsp/j30.sm/j3012_7.sm nv: 267648 nc: 541847 enctime: 3.42
encoding rcpsp/j30.sm/j3012_7.sm nv: 73472 nc: 147575 enctime: 0.82
c File: j3012_7.smnaivebi5.wcnf
c optimal
c final solution cost: 51
c CPU time: 0.684313
s OPTIMUM FOUND

c File: j3012_7.smbi5.wcnf
c optimal
c final solution cost: 51
c CPU time: 0.181451
s OPTIMUM FOUND


rcpsp/heur_output_bi_constraints/Log=5/heurj30.txt
encoding rcpsp/j30.sm/j3012_8.sm nv: 261288 nc: 513125 enctime: 3.24
encoding rcpsp/j30.sm/j3012_8.sm nv: 59592 nc: 116069 enctime: 0.69
c File: j3012_8.smnaivebi5.wcnf
c optimal
c final solution cost: 33
c CPU time: 0.594908
s OPTIMUM FOUND

c File: j3012_8.smbi5.wcnf
c optimal
c final solution cost: 33
c CPU time: 0.116516
s OPTIMUM FOUND


rcpsp/heur_output_bi_constraints/Log=5/heurj30.txt
encoding rcpsp/j30.sm/j3012_9.sm nv: 211876 nc: 429292 enctime: 2.73
encoding rcpsp/j30.sm/j3012_9.sm nv: 63112 nc: 126880 enctime: 0.71
c File: j3012_9.smnaivebi5.wcnf
c optimal
c final solution cost: 40
c CPU time: 0.581555
s OPTIMUM FOUND

c File: j3012_9.smbi5.wcnf
c optimal
c final solution cost: 40
c CPU time: 0.138253
s OPTIMUM FOUND


rcpsp/heur_output_bi_constraints/Log=5/heurj30.txt
encoding rcpsp/j30.sm/j301_2.sm nv: 19159 nc: 53873 enctime: 0.41
encoding rcpsp/j30.sm/j301_2.sm nv: 7497 nc: 20357 enctime: 0.09
c File: j301_2.smnaivebi5.wcnf
c optimal
c final solution cost: 45
c CPU time: 0.254935
s OPTIMUM FOUND

c File: j301_2.smbi5.wcnf
c optimal
c final solution cost: 45
c CPU time: 0.045947
s OPTIMUM FOUND


rcpsp/heur_output_bi_constraints/Log=5/heurj30.txt
encoding rcpsp/j30.sm/j3013_10.sm nv: 135378 nc: 274550 enctime: 1.67
encoding rcpsp/j30.sm/j3013_10.sm nv: 89271 nc: 180738 enctime: 1.05
c File: j3013_10.smnaivebi5.wcnf
c timeout
c final solution cost: 59
c CPU time: 60.252314
s UNKNOWN

c File: j3013_10.smbi5.wcnf
c timeout
c final solution cost: 59
c CPU time: 60.150902
s UNKNOWN


rcpsp/heur_output_bi_constraints/Log=5/heurj30.txt
encoding rcpsp/j30.sm/j3013_1.sm nv: 167048 nc: 339602 enctime: 2.05
encoding rcpsp/j30.sm/j3013_1.sm nv: 74732 nc: 151358 enctime: 0.89
c File: j3013_1.smnaivebi5.wcnf
c timeout
c final solution cost: 57
c CPU time: 60.301047
s UNKNOWN

c File: j3013_1.smbi5.wcnf
c timeout
c final solution cost: 57
c CPU time: 60.118140
s UNKNOWN


rcpsp/heur_output_bi_constraints/Log=5/heurj30.txt
encoding rcpsp/j30.sm/j3013_2.sm nv: 147556 nc: 300819 enctime: 1.73
encoding rcpsp/j30.sm/j3013_2.sm nv: 77766 nc: 158089 enctime: 0.88
c File: j3013_2.smnaivebi5.wcnf
c timeout
c final solution cost: 66
c CPU time: 60.263722
s UNKNOWN

c File: j3013_2.smbi5.wcnf
c timeout
c final solution cost: 63
c CPU time: 60.127907
s UNKNOWN


rcpsp/heur_output_bi_constraints/Log=5/heurj30.txt
encoding rcpsp/j30.sm/j3013_3.sm nv: 159831 nc: 331502 enctime: 1.95
encoding rcpsp/j30.sm/j3013_3.sm nv: 86688 nc: 179222 enctime: 1.01
c File: j3013_3.smnaivebi5.wcnf
c timeout
c final solution cost: 78
c CPU time: 60.311623
s UNKNOWN

c File: j3013_3.smbi5.wcnf
c timeout
c final solution cost: 76
c CPU time: 60.152305
s UNKNOWN


rcpsp/heur_output_bi_constraints/Log=5/heurj30.txt
encoding rcpsp/j30.sm/j3013_4.sm nv: 142091 nc: 290940 enctime: 1.72
encoding rcpsp/j30.sm/j3013_4.sm nv: 75280 nc: 153697 enctime: 0.89
c File: j3013_4.smnaivebi5.wcnf
c timeout
c final solution cost: 68
c CPU time: 60.265645
s UNKNOWN

c File: j3013_4.smbi5.wcnf
c timeout
c final solution cost: 69
c CPU time: 60.125012
s UNKNOWN


rcpsp/heur_output_bi_constraints/Log=5/heurj30.txt
encoding rcpsp/j30.sm/j3013_5.sm nv: 169533 nc: 346627 enctime: 2.03
encoding rcpsp/j30.sm/j3013_5.sm nv: 101088 nc: 206227 enctime: 1.15
c File: j3013_5.smnaivebi5.wcnf
c timeout
c final solution cost: 67
c CPU time: 60.304765
s UNKNOWN

c File: j3013_5.smbi5.wcnf
c timeout
c final solution cost: 69
c CPU time: 60.162089
s UNKNOWN


rcpsp/heur_output_bi_constraints/Log=5/heurj30.txt
encoding rcpsp/j30.sm/j3013_6.sm nv: 169600 nc: 345920 enctime: 2.03
encoding rcpsp/j30.sm/j3013_6.sm nv: 79500 nc: 161555 enctime: 0.92
c File: j3013_6.smnaivebi5.wcnf
c timeout
c final solution cost: 65
c CPU time: 60.303891
s UNKNOWN

c File: j3013_6.smbi5.wcnf
c timeout
c final solution cost: 67
c CPU time: 60.129043
s UNKNOWN


